!   File created by the GAMESS Input Deck Generator Plugin for Avogadro
 $BASIS GBASIS=STO NGAUSS=3 $END
 $CONTRL SCFTYP=RHF RUNTYP=IRC NZVAR=1 mult=1  ICHARG=1 $END
 $STATPT hssend=.t. OPTTOL=0.0005 NSTEP=50 $END
 $STATPT HESS=READ ihrep=5 $END
 $FORCE nvib=2 $END
 $ZMAT DLC=.t. auto=.t. nonvdw(1)=5,6 $END
!$ZMAT IFZMAT(1)=1,5,6 fvalue(1)=2.86 $END
 $irc npoint=100 saddle=.t. tsengy=.t. forwrd=.t. opttol=0.0005 stride=0.1 $end
 $DATA 
Title
C1
C     6.0    -6.21932364     2.63410378    -0.00000000
Cl    17.0    -7.36990833     3.95970821     0.00000000
H     1.0    -6.67189407     1.63288963    -0.00000000
H     1.0    -4.61944389     3.78017306    -0.00000000
N     7.0    -4.95951414     2.78930855    -0.00000000
H     1.0    -2.88764477     0.81777149     0.00000000
 $END
 $HESS
ENERGY IS     -546.8885284089 E(NUC) IS       92.8042511448
 1  1 1.10075329E+00 1.82015568E-01 0.00000000E+00-1.21886556E-01 9.91236461E-02
 1  2 0.00000000E+00-1.18758924E-01-1.47992885E-01 0.00000000E+00-3.27784421E-02
 1  3 2.36594004E-02 0.00000000E+00-8.18552342E-01-1.64230169E-01 0.00000000E+00
 1  4-8.77804027E-03 7.42374717E-03 0.00000000E+00
 2  1 1.82015568E-01 7.44750736E-01 0.00000000E+00 1.22471108E-01-1.97504419E-01
 2  2 0.00000000E+00-1.39157133E-01-3.95029669E-01 0.00000000E+00-5.48095600E-02
 2  3 5.88732663E-03 0.00000000E+00-1.10772354E-01-1.60565824E-01 0.00000000E+00
 2  4 2.52717222E-04 2.46174680E-03 0.00000000E+00
 3  1 0.00000000E+00 0.00000000E+00 1.41929911E-01 0.00000000E+00 0.00000000E+00
 3  2-3.38712821E-02 0.00000000E+00 0.00000000E+00-5.69689639E-02 0.00000000E+00
 3  3 0.00000000E+00-3.33232856E-03 0.00000000E+00 0.00000000E+00-4.81906264E-02
 3  4 0.00000000E+00 0.00000000E+00 4.33154980E-04
 4  1-1.21886556E-01 1.22471108E-01 0.00000000E+00 1.70766304E-01-1.53839614E-01
 4  2 0.00000000E+00-9.06941150E-04-4.75868095E-03 0.00000000E+00 5.19705099E-03
 4  3 1.71722964E-03 0.00000000E+00-5.60653882E-02 3.73270231E-02 0.00000000E+00
 4  4 2.89511727E-03-2.91683389E-03 0.00000000E+00
 5  1 9.91236461E-02-1.97504419E-01 0.00000000E+00-1.53839614E-01 2.07127647E-01
 5  2 0.00000000E+00 2.97938976E-02-1.09743521E-02 0.00000000E+00-2.76536633E-03
 5  3-3.00810084E-04 0.00000000E+00 2.99309453E-02-6.45463441E-05 0.00000000E+00
 5  4-2.24411584E-03 1.71650057E-03 0.00000000E+00
 6  1 0.00000000E+00 0.00000000E+00-3.38712821E-02 0.00000000E+00 0.00000000E+00
 6  2 1.14978401E-02 0.00000000E+00 0.00000000E+00 8.65230384E-03 0.00000000E+00
 6  3 0.00000000E+00-6.67258702E-03 0.00000000E+00 0.00000000E+00 1.93597933E-02
 6  4 0.00000000E+00 0.00000000E+00 1.03370497E-03
 7  1-1.18758924E-01-1.39157133E-01 0.00000000E+00-9.06941150E-04 2.97938976E-02
 7  2 0.00000000E+00 1.42863843E-01 1.47997010E-01 0.00000000E+00-3.30025360E-03
 7  3-1.44331740E-03 0.00000000E+00-1.95982909E-02-3.71449159E-02 0.00000000E+00
 7  4-2.99539103E-04-4.54327590E-05 0.00000000E+00
 8  1-1.47992885E-01-3.95029669E-01 0.00000000E+00-4.75868095E-03-1.09743521E-02
 8  2 0.00000000E+00 1.47997010E-01 3.94154605E-01 0.00000000E+00 3.82689543E-03
 8  3-1.35982247E-03 0.00000000E+00 1.62055626E-03 1.19136533E-02 0.00000000E+00
 8  4-6.92925263E-04 1.29549668E-03 0.00000000E+00
 9  1 0.00000000E+00 0.00000000E+00-5.69689639E-02 0.00000000E+00 0.00000000E+00
 9  2 8.65230384E-03 0.00000000E+00 0.00000000E+00 3.21699051E-02 0.00000000E+00
 9  3 0.00000000E+00 1.68752531E-02 0.00000000E+00 0.00000000E+00 3.65804881E-05
 9  4 0.00000000E+00 0.00000000E+00-7.64840101E-04
10  1-3.27784421E-02-5.48095600E-02 0.00000000E+00 5.19705099E-03-2.76536633E-03
10  2 0.00000000E+00-3.30025360E-03 3.82689543E-03 0.00000000E+00 1.14457416E-01
10  3 1.55145589E-01 0.00000000E+00-8.71299536E-02-1.01128014E-01 0.00000000E+00
10  4 3.55400496E-03-2.69322456E-04 0.00000000E+00
11  1 2.36594004E-02 5.88732663E-03 0.00000000E+00 1.71722964E-03-3.00810084E-04
11  2 0.00000000E+00-1.44331740E-03-1.35982247E-03 0.00000000E+00 1.55145589E-01
11  3 4.70843542E-01 0.00000000E+00-1.77742139E-01-4.75362305E-01 0.00000000E+00
11  4-1.33679533E-03 2.91800777E-04 0.00000000E+00
12  1 0.00000000E+00 0.00000000E+00-3.33232856E-03 0.00000000E+00 0.00000000E+00
12  2-6.67258702E-03 0.00000000E+00 0.00000000E+00 1.68752531E-02 0.00000000E+00
12  3 0.00000000E+00 2.66446294E-02 0.00000000E+00 0.00000000E+00-3.32955539E-02
12  4 0.00000000E+00 0.00000000E+00-2.19496202E-04
13  1-8.18552342E-01-1.10772354E-01 0.00000000E+00-5.60653882E-02 2.99309453E-02
13  2 0.00000000E+00-1.95982909E-02 1.62055626E-03 0.00000000E+00-8.71299536E-02
13  3-1.77742139E-01 0.00000000E+00 9.67409761E-01 2.78757748E-01 0.00000000E+00
13  4 1.39379888E-02-2.17945266E-02 0.00000000E+00
14  1-1.64230169E-01-1.60565824E-01 0.00000000E+00 3.73270231E-02-6.45463441E-05
14  2 0.00000000E+00-3.71449159E-02 1.19136533E-02 0.00000000E+00-1.01128014E-01
14  3-4.75362305E-01 0.00000000E+00 2.78757748E-01 6.21122315E-01 0.00000000E+00
14  4-1.35814211E-02 2.95705615E-03 0.00000000E+00
15  1 0.00000000E+00 0.00000000E+00-4.81906264E-02 0.00000000E+00 0.00000000E+00
15  2 1.93597933E-02 0.00000000E+00 0.00000000E+00 3.65804881E-05 0.00000000E+00
15  3 0.00000000E+00-3.32955539E-02 0.00000000E+00 0.00000000E+00 6.92606959E-02
15  4 0.00000000E+00 0.00000000E+00-7.17069925E-03
16  1-8.77804027E-03 2.52717222E-04 0.00000000E+00 2.89511727E-03-2.24411584E-03
16  2 0.00000000E+00-2.99539103E-04-6.92925263E-04 0.00000000E+00 3.55400496E-03
16  3-1.33679533E-03 0.00000000E+00 1.39379888E-02-1.35814211E-02 0.00000000E+00
16  4-1.13095842E-02 1.76024402E-02 0.00000000E+00
17  1 7.42374717E-03 2.46174680E-03 0.00000000E+00-2.91683389E-03 1.71650057E-03
17  2 0.00000000E+00-4.54327590E-05 1.29549668E-03 0.00000000E+00-2.69322456E-04
17  3 2.91800777E-04 0.00000000E+00-2.17945266E-02 2.95705615E-03 0.00000000E+00
17  4 1.76024402E-02-8.72251223E-03 0.00000000E+00
18  1 0.00000000E+00 0.00000000E+00 4.33154980E-04 0.00000000E+00 0.00000000E+00
18  2 1.03370497E-03 0.00000000E+00 0.00000000E+00-7.64840101E-04 0.00000000E+00
18  3 0.00000000E+00-2.19496202E-04 0.00000000E+00 0.00000000E+00-7.17069925E-03
18  4 0.00000000E+00 0.00000000E+00 6.68819182E-03
 $END